NAME 
ROWS
 N  OBJ
 L  R0      
 E  R1      
 E  R2      
 E  R3      
 E  R4      
 E  R5      
 E  R6      
 E  R7      
 E  R8      
 E  R9      
 E  R10     
COLUMNS
    MARKER    'MARKER'                 'INTORG'
    I0(4)     OBJ       148
    I0(4)     R0        -199
    I0(4)     R1        17
    I0(4)     R2        11
    I0(4)     R10       1
    I1(4)     OBJ       118
    I1(4)     R0        -33
    I1(4)     R1        13
    I1(4)     R5        -1
    I1(4)     R10       1
    I2(5)     OBJ       -60
    I2(5)     R0        70
    I2(5)     R1        11
    I2(5)     R3        2
    I2(5)     R5        8
    I2(5)     R10       1
    I3(3)     OBJ       62
    I3(3)     R0        -119
    I3(3)     R3        9
    I3(3)     R10       1
    I4(4)     OBJ       45
    I4(4)     R0        125
    I4(4)     R3        13
    I4(4)     R4        3
    I4(4)     R10       1
    MARKER    'MARKER'                 'INTEND'
    C5(4)     OBJ       -2
    C5(4)     R0        8
    C5(4)     R1        2
    C5(4)     R5        1
    C5(4)     R6        8
    C6(5)     OBJ       1
    C6(5)     R0        4
    C6(5)     R2        18
    C6(5)     R4        18
    C6(5)     R5        11
    C6(5)     R6        9
    C7(8)     OBJ       -4
    C7(8)     R0        -6
    C7(8)     R2        19
    C7(8)     R3        19
    C7(8)     R4        2
    C7(8)     R5        5
    C7(8)     R6        15
    C7(8)     R8        15
    C7(8)     R9        16
    C8(8)     OBJ       -4
    C8(8)     R0        -7
    C8(8)     R1        19
    C8(8)     R2        6
    C8(8)     R3        19
    C8(8)     R5        15
    C8(8)     R6        1
    C8(8)     R7        11
    C8(8)     R8        2
    C9(5)     OBJ       -8
    C9(5)     R0        7
    C9(5)     R4        19
    C9(5)     R5        5
    C9(5)     R7        14
    C9(5)     R9        4
    C10(1)    R1        1
    C11(1)    R2        1
    C12(1)    R3        1
    C13(1)    R4        1
    C14(1)    R5        1
    C15(1)    R6        1
    C16(1)    R7        1
    C17(1)    R8        1
    C18(1)    R9        1
    C19(1)    R10       1
RHS
    RHS1      R0        1.7989952153110031e+02
    RHS1      R1        84
    RHS1      R2        61
    RHS1      R3        60
    RHS1      R4        78
    RHS1      R5        90
    RHS1      R6        83
    RHS1      R7        60
    RHS1      R8        90
    RHS1      R9        99
    RHS1      R10       1
BOUNDS
 UP BND1      I0(4)     1
 UP BND1      I1(4)     1
 UP BND1      I2(5)     1
 UP BND1      I3(3)     1
 UP BND1      I4(4)     1
ENDATA
